(set-option :produce-proofs true)
(set-logic QF_UF)
(declare-fun p () Bool)
(declare-fun q () Bool)
(declare-fun r () Bool)
(assert (=> p q))
(assert (=> q r))
(assert (not (=> p r)))
(check-sat)
(get-proof)
